NAME : local_13
TYPE : ATSP
DIMENSION : 16
EDGE_WEIGHT_TYPE : EXPLICIT
EDGE_WEIGHT_FORMAT : FULL_MATRIX
EDGE_WEIGHT_SECTION
0 10000000 543 10000000 10000000 10000000 603 10000000 10000000 366 589 240 946 10000000 10000000 977 
0 0 10000000 310 304 397 10000000 10000000 512 10000000 10000000 10000000 708 545 579 683 
0 10000000 0 10000000 10000000 10000000 227 10000000 10000000 432 569 706 10000000 10000000 10000000 10000000 
0 310 10000000 0 317 168 10000000 10000000 213 10000000 10000000 10000000 914 619 277 942 
0 304 10000000 317 0 247 10000000 10000000 404 10000000 10000000 10000000 860 342 546 956 
0 397 10000000 168 247 0 10000000 10000000 160 10000000 10000000 10000000 995 537 313 10000000 
0 10000000 227 10000000 10000000 10000000 0 10000000 10000000 343 392 694 10000000 10000000 10000000 10000000 
0 10000000 10000000 10000000 10000000 10000000 10000000 0 10000000 989 954 872 898 949 10000000 10000000 
0 512 10000000 213 404 160 10000000 10000000 0 10000000 10000000 10000000 10000000 667 170 10000000 
0 10000000 432 10000000 10000000 10000000 343 989 10000000 0 232 372 10000000 10000000 10000000 10000000 
0 10000000 569 10000000 10000000 10000000 392 924 10000000 232 0 534 10000000 10000000 10000000 10000000 
0 10000000 706 10000000 10000000 10000000 694 872 10000000 372 534 0 750 10000000 10000000 798 
0 697 10000000 928 920 1047 10000000 898 10000000 10000000 10000000 750 0 783 10000000 151 
0 545 10000000 619 342 537 10000000 985 667 10000000 10000000 10000000 783 0 803 943 
0 579 10000000 277 546 313 10000000 10000000 170 10000000 10000000 10000000 10000000 803 0 10000000 
0 10000000 10000000 10000000 10000000 10000000 10000000 10000000 10000000 10000000 10000000 10000000 10000000 10000000 10000000 0 
EOF